100
23 0
41 0
31 0
4 4
15 1
18 4
36 3
19 4
23 2
24 1
3 3
42 4
27 0
28 3
27 4
28 0
25 4
11 4
33 4
9 3
24 0
29 0
42 3
34 4
24 2
4 3
4 2
14 3
7 0
37 2
33 0
34 0
21 4
42 0
22 2
16 4
38 0
25 3
6 1
2 4
2 0
22 0
14 0
20 4
1 0
37 1
7 4
23 4
29 4
22 1
27 1
32 0
9 0
39 4
24 4
22 3
18 0
6 0
18 2
2 2
40 3
39 3
31 4
6 3
18 1
21 0
41 4
19 0
2 3
43 2
36 4
5 4
13 0
0 4
3 0
3 4
30 4
4 0
41 1
10 4
10 0
19 1
0 0
38 1
0 2
14 1
29 2
28 4
7 2
13 4
36 0
43 0
38 4
25 0
21 3
12 3
34 2
20 0
33 3
36 1

